c FILE /home/rafael/Documents/HappySet/MIHS/inputs/happygen/output/graph_scale_free_k20_p0.5_v100_20241127_083934.txt
c SOURCE This is a scale-free graph formed for the happy graph colouring problem.
c DESCRIPTION It was generated using the problem generator of Rhyd Lewis
c
c GRAPH STATS
c Seed                             = -380041079
c Number of Nodes                  = 100
c Number of colours k              = 20
c Number of pre-assignments        = 50
c Number of links per new node     = 5
c Density                          = 0.0979798
c 
c The degrees of nodes 1 to 100, respectively, are as follows 
c [33, 30, 29, 28, 28, 26, 24, 24, 22, 20, 20, 18, 18, 17, 16, 15, 14, 14, 14, 14, 13, 12, 12, 11, 11, 11, 
c  11, 11, 9, 9, 9, 9, 9, 8, 8, 8, 8, 8, 8, 8, 8, 8, 7, 7, 7, 7, 7, 7, 7, 7, 7, 
c  7, 7, 6, 6, 6, 6, 6, 6, 6, 6, 6, 6, 6, 6, 6, 6, 6, 6, 6, 6, 6, 6, 6, 6, 6, 
c  6, 6, 5, 5, 5, 5, 5, 5, 5, 5, 5, 5, 5, 5, 5, 5, 5, 5, 5, 5, 5, 5, 5, 5] 
c  
p edge 100 485 20
e 1 2
e 1 3
e 1 4
e 1 5
e 1 6
e 1 7
e 1 8
e 1 9
e 1 10
e 1 13
e 1 14
e 1 15
e 1 18
e 1 19
e 1 22
e 1 25
e 1 31
e 1 32
e 1 37
e 1 40
e 1 41
e 1 47
e 1 49
e 1 54
e 1 61
e 1 63
e 1 70
e 1 80
e 1 81
e 1 83
e 1 87
e 1 91
e 1 96
e 2 3
e 2 4
e 2 5
e 2 6
e 2 7
e 2 9
e 2 10
e 2 11
e 2 12
e 2 13
e 2 14
e 2 15
e 2 21
e 2 22
e 2 24
e 2 30
e 2 31
e 2 36
e 2 42
e 2 47
e 2 48
e 2 54
e 2 59
e 2 65
e 2 66
e 2 85
e 2 88
e 2 96
e 2 100
e 3 4
e 3 5
e 3 7
e 3 10
e 3 11
e 3 12
e 3 16
e 3 17
e 3 23
e 3 26
e 3 27
e 3 30
e 3 38
e 3 44
e 3 45
e 3 51
e 3 53
e 3 56
e 3 66
e 3 71
e 3 82
e 3 84
e 3 90
e 3 91
e 3 93
e 3 94
e 3 97
e 4 5
e 4 6
e 4 7
e 4 8
e 4 9
e 4 10
e 4 12
e 4 13
e 4 14
e 4 17
e 4 21
e 4 24
e 4 29
e 4 31
e 4 32
e 4 33
e 4 46
e 4 49
e 4 58
e 4 62
e 4 66
e 4 73
e 4 81
e 4 84
e 4 98
e 5 10
e 5 11
e 5 12
e 5 15
e 5 16
e 5 17
e 5 18
e 5 22
e 5 26
e 5 27
e 5 29
e 5 30
e 5 32
e 5 33
e 5 35
e 5 44
e 5 47
e 5 52
e 5 61
e 5 64
e 5 67
e 5 75
e 5 77
e 5 79
e 6 8
e 6 11
e 6 16
e 6 19
e 6 20
e 6 24
e 6 25
e 6 34
e 6 41
e 6 58
e 6 62
e 6 63
e 6 64
e 6 66
e 6 73
e 6 78
e 6 85
e 6 89
e 6 91
e 6 92
e 6 93
e 6 96
e 6 97
e 7 14
e 7 16
e 7 17
e 7 20
e 7 21
e 7 22
e 7 23
e 7 25
e 7 29
e 7 33
e 7 34
e 7 40
e 7 43
e 7 46
e 7 50
e 7 57
e 7 75
e 7 86
e 7 88
e 7 90
e 8 9
e 8 10
e 8 13
e 8 23
e 8 34
e 8 36
e 8 43
e 8 45
e 8 46
e 8 50
e 8 57
e 8 59
e 8 65
e 8 72
e 8 75
e 8 76
e 8 88
e 8 94
e 8 96
e 8 97
e 8 99
e 9 10
e 9 12
e 9 13
e 9 15
e 9 17
e 9 20
e 9 23
e 9 26
e 9 28
e 9 31
e 9 41
e 9 42
e 9 45
e 9 52
e 9 55
e 9 63
e 9 68
e 9 75
e 10 12
e 10 13
e 10 14
e 10 18
e 10 26
e 10 29
e 10 30
e 10 35
e 10 42
e 10 67
e 10 73
e 10 76
e 10 86
e 11 14
e 11 15
e 11 17
e 11 19
e 11 23
e 11 24
e 11 25
e 11 57
e 11 60
e 11 65
e 11 69
e 11 79
e 11 88
e 11 94
e 11 98
e 11 100
e 12 14
e 12 20
e 12 29
e 12 37
e 12 39
e 12 48
e 12 51
e 12 55
e 12 74
e 12 80
e 12 94
e 12 95
e 13 18
e 13 22
e 13 27
e 13 30
e 13 34
e 13 38
e 13 53
e 13 54
e 13 58
e 13 62
e 13 84
e 13 90
e 14 25
e 14 27
e 14 31
e 14 35
e 14 36
e 14 37
e 14 55
e 14 58
e 14 66
e 14 71
e 15 19
e 15 32
e 15 44
e 15 59
e 15 67
e 15 68
e 15 79
e 15 81
e 15 86
e 15 89
e 15 100
e 16 19
e 16 24
e 16 26
e 16 41
e 16 43
e 16 44
e 16 46
e 16 51
e 16 69
e 16 70
e 16 71
e 17 33
e 17 40
e 17 45
e 17 48
e 17 53
e 17 62
e 17 93
e 17 97
e 18 28
e 18 29
e 18 36
e 18 44
e 18 47
e 18 72
e 18 77
e 18 78
e 18 80
e 18 85
e 19 28
e 19 52
e 19 55
e 19 63
e 19 68
e 19 70
e 19 77
e 19 83
e 19 93
e 20 25
e 20 38
e 20 49
e 20 50
e 20 52
e 20 53
e 20 57
e 20 71
e 20 72
e 20 97
e 21 22
e 21 29
e 21 32
e 21 35
e 21 37
e 21 43
e 21 70
e 21 80
e 21 89
e 21 94
e 22 24
e 22 45
e 22 49
e 22 61
e 22 81
e 22 95
e 23 28
e 23 36
e 23 40
e 23 43
e 23 48
e 23 88
e 23 92
e 24 35
e 24 51
e 24 57
e 24 74
e 24 95
e 25 39
e 25 46
e 25 61
e 25 67
e 25 77
e 26 50
e 26 51
e 26 56
e 26 60
e 26 85
e 26 90
e 27 29
e 27 54
e 27 61
e 27 64
e 27 65
e 27 87
e 27 95
e 28 49
e 28 56
e 28 60
e 28 80
e 28 81
e 28 82
e 28 86
e 29 34
e 30 49
e 30 60
e 30 77
e 30 79
e 31 82
e 31 83
e 31 89
e 31 95
e 32 37
e 32 38
e 32 48
e 32 72
e 33 34
e 33 42
e 33 62
e 33 71
e 33 72
e 34 39
e 34 56
e 35 38
e 35 56
e 35 74
e 36 59
e 36 63
e 36 78
e 37 73
e 37 85
e 37 87
e 38 39
e 38 83
e 38 93
e 39 42
e 39 43
e 39 64
e 39 74
e 40 59
e 40 65
e 40 68
e 40 76
e 41 53
e 41 76
e 41 84
e 41 100
e 42 83
e 42 90
e 42 91
e 43 99
e 44 47
e 44 79
e 45 69
e 45 73
e 46 55
e 46 82
e 47 53
e 47 54
e 48 59
e 48 60
e 49 74
e 50 52
e 50 55
e 50 84
e 51 78
e 51 98
e 52 69
e 52 70
e 53 99
e 54 91
e 56 58
e 57 86
e 58 89
e 60 82
e 61 69
e 62 64
e 63 68
e 64 92
e 65 67
e 66 76
e 67 87
e 68 92
e 69 96
e 70 75
e 71 87
e 72 78
e 73 92
e 74 99
e 75 98
e 76 100
e 77 99
e 78 98
n 12 15
n 13 1
n 17 6
n 23 13
n 29 15
n 32 3
n 35 5
n 39 15
n 41 9
n 44 2
n 46 11
n 47 2
n 49 19
n 50 17
n 56 5
n 57 7
n 59 18
n 60 8
n 61 14
n 63 10
n 64 15
n 65 4
n 66 9
n 67 4
n 68 10
n 70 12
n 71 4
n 72 3
n 73 20
n 76 9
n 77 18
n 79 2
n 80 15
n 81 4
n 83 14
n 85 16
n 86 7
n 87 4
n 88 13
n 89 7
n 90 1
n 91 3
n 93 6
n 94 15
n 95 15
n 96 2
n 97 6
n 98 7
n 99 18
n 100 9
